\ This file has been generated by DOcplex
\ ENCODING=ISO-8859-1
\Problem name: {self.PROBLEM.name} zerosum SOTA problem

Maximize
 obj: V
Subject To
 c1: V - 126.558352108195 a0_0 - 172.867222936377 a0_1 - 172.867222936377 a0_2
      <= 0
 c2: V - 172.867222936377 a0_0 - 148.590888854846 a0_1 - 206.619441638340 a0_2
      <= 0
 c3: V - 172.867222936377 a0_0 - 206.619441638340 a0_1 - 148.590888854846 a0_2
      <= 0
 c4: a0_0 + a0_1 + a0_2 = 1

Bounds
       a0_0 <= 1
       a0_1 <= 1
       a0_2 <= 1
       V Free
End
